100
128
32
49
47
26
7
7
44
14
38
38
24
33
29
32
31
30
56
24
64
63
57
37
26
34
28
21
3
48
30
46
2
15
49
64
22
49
56
54
26
23
37
38
53
23
42
43
43
43
25
64
64
60
2
24
56
64
36
48
27
34
1
1
51
10
31
40
1
60
39
32
37
27
48
24
56
19
39
62
53
32
43
56
1
32
44
32
51
39
24
23
51
54
34
43
50
1
23
1
45
59